50
4857

376 762
686 403
154 830
160 818
799 653
616 358
474 968
141 735
351 140
665 970
768 245
789 80
321 668
988 774
667 736
70 623
188 746
629 716
824 783
921 883
466 309
520 300
409 874
456 617
676 917
182 51
187 39
604 611
410 903
432 945
370 459
916 419
771 838
998 668
7 279
206 522
748 305
717 110
156 203
901 625
791 245
722 894
84 982
921 270
631 878
690 825
171 960
322 553
971 90
692 272
